log data/log.passivate
include in.common_variables
# read_restart restart.amorphous

units metal
boundary p p p
atom_style atomic

read_data data/data.setup_withH

include in.potential_etc_SiO2H2O

include in.common_regions
include in.common_variables

group SiO2 union all

fix passivate all passivate
run 1
unfix passivate

group OHgroups subtract all SiO2
group moving union OHgroups

write_data data/data.setup_passivated
write_dump all xyz data/xyz.passivated
