pair_style vashishta
pair_coeff	* * ${INDIR}/SiO2.vashishta Si O
mass 1 28.08
mass 2 15.9994
